TIP.Original.Linear/tip2015_weird_nat_mul3acc_assoc3.smt2
(set-logic HORN)
(declare-datatypes ((Nat_379 0)) (((zero_88 ) (succ_86 (p_242 Nat_379)))))
(declare-fun diseqNat_379 (Nat_379 Nat_379) Bool)
(declare-fun p_243 (Nat_379 Nat_379) Bool)
(declare-fun iszero_86 (Nat_379) Bool)
(declare-fun issucc_86 (Nat_379) Bool)
(assert (forall ((x_35005 Nat_379))
	(p_243 x_35005 (succ_86 x_35005))))
(assert (iszero_86 zero_88))
(assert (forall ((x_35007 Nat_379))
	(issucc_86 (succ_86 x_35007))))
(assert (forall ((x_35008 Nat_379))
	(diseqNat_379 zero_88 (succ_86 x_35008))))
(assert (forall ((x_35009 Nat_379))
	(diseqNat_379 (succ_86 x_35009) zero_88)))
(assert (forall ((x_35010 Nat_379) (x_35011 Nat_379))
	(=> (diseqNat_379 x_35010 x_35011)
	    (diseqNat_379 (succ_86 x_35010) (succ_86 x_35011)))))
(declare-fun plus_80 (Nat_379 Nat_379 Nat_379) Bool)
(assert (forall ((x_34909 Nat_379) (z_1300 Nat_379) (y_1403 Nat_379))
	(=> (plus_80 x_34909 z_1300 y_1403)
	    (plus_80 (succ_86 x_34909) (succ_86 z_1300) y_1403))))
(assert (forall ((x_34910 Nat_379))
	(plus_80 x_34910 zero_88 x_34910)))
(declare-fun addacc_11 (Nat_379 Nat_379 Nat_379 Nat_379) Bool)
(assert (forall ((x_34911 Nat_379) (x_34894 Nat_379) (y_1404 Nat_379) (z_1301 Nat_379))
	(=> (addacc_11 x_34911 x_34894 (succ_86 y_1404) z_1301)
	    (addacc_11 x_34911 (succ_86 x_34894) y_1404 z_1301))))
(assert (forall ((x_34913 Nat_379) (x_34895 Nat_379) (z_1301 Nat_379))
	(=> (addacc_11 x_34913 zero_88 x_34895 (succ_86 z_1301))
	    (addacc_11 x_34913 zero_88 (succ_86 x_34895) z_1301))))
(assert (forall ((x_34915 Nat_379))
	(addacc_11 x_34915 zero_88 zero_88 x_34915)))
(declare-fun mulacc_3 (Nat_379 Nat_379 Nat_379 Nat_379) Bool)
(assert (forall ((x_34916 Nat_379) (x_34917 Nat_379) (x_34918 Nat_379) (x_34919 Nat_379) (x_34920 Nat_379) (x_34921 Nat_379) (x_34922 Nat_379) (fail_17 Nat_379))
	(=>	(and (mulacc_3 x_34916 zero_88 zero_88 zero_88)
			(mulacc_3 x_34917 (succ_86 zero_88) zero_88 zero_88)
			(mulacc_3 x_34918 zero_88 (succ_86 zero_88) zero_88)
			(mulacc_3 x_34919 zero_88 zero_88 (succ_86 zero_88))
			(addacc_11 x_34920 x_34917 x_34918 x_34919)
			(addacc_11 x_34921 (succ_86 zero_88) (succ_86 zero_88) (succ_86 zero_88))
			(addacc_11 x_34922 x_34916 x_34920 x_34921)
			(plus_80 fail_17 (succ_86 zero_88) x_34922))
		(mulacc_3 (succ_86 zero_88) (succ_86 zero_88) (succ_86 zero_88) (succ_86 zero_88)))))
(assert (forall ((x_34925 Nat_379) (x_34926 Nat_379) (x_34927 Nat_379) (x_34928 Nat_379) (x_34929 Nat_379) (x_34930 Nat_379) (x_34931 Nat_379) (fail_17 Nat_379) (x_34899 Nat_379) (x_34898 Nat_379) (x_34897 Nat_379))
	(=>	(and (diseqNat_379 x_34897 zero_88)
			(mulacc_3 x_34925 x_34897 x_34898 x_34899)
			(mulacc_3 x_34926 (succ_86 zero_88) x_34898 x_34899)
			(mulacc_3 x_34927 x_34897 (succ_86 zero_88) x_34899)
			(mulacc_3 x_34928 x_34897 x_34898 (succ_86 zero_88))
			(addacc_11 x_34929 x_34926 x_34927 x_34928)
			(addacc_11 x_34930 (succ_86 x_34897) (succ_86 x_34898) (succ_86 x_34899))
			(addacc_11 x_34931 x_34925 x_34929 x_34930)
			(plus_80 fail_17 (succ_86 zero_88) x_34931))
		(mulacc_3 fail_17 (succ_86 x_34897) (succ_86 x_34898) (succ_86 x_34899)))))
(assert (forall ((x_34934 Nat_379) (x_34935 Nat_379) (x_34936 Nat_379) (x_34937 Nat_379) (x_34938 Nat_379) (x_34939 Nat_379) (x_34940 Nat_379) (fail_17 Nat_379) (x_34899 Nat_379) (x_34898 Nat_379))
	(=>	(and (diseqNat_379 x_34898 zero_88)
			(mulacc_3 x_34934 zero_88 x_34898 x_34899)
			(mulacc_3 x_34935 (succ_86 zero_88) x_34898 x_34899)
			(mulacc_3 x_34936 zero_88 (succ_86 zero_88) x_34899)
			(mulacc_3 x_34937 zero_88 x_34898 (succ_86 zero_88))
			(addacc_11 x_34938 x_34935 x_34936 x_34937)
			(addacc_11 x_34939 (succ_86 zero_88) (succ_86 x_34898) (succ_86 x_34899))
			(addacc_11 x_34940 x_34934 x_34938 x_34939)
			(plus_80 fail_17 (succ_86 zero_88) x_34940))
		(mulacc_3 fail_17 (succ_86 zero_88) (succ_86 x_34898) (succ_86 x_34899)))))
(assert (forall ((x_34943 Nat_379) (x_34944 Nat_379) (x_34945 Nat_379) (x_34946 Nat_379) (x_34947 Nat_379) (x_34948 Nat_379) (x_34949 Nat_379) (fail_17 Nat_379) (x_34899 Nat_379) (x_34898 Nat_379) (x_34897 Nat_379))
	(=>	(and (diseqNat_379 x_34897 zero_88)
			(mulacc_3 x_34943 x_34897 x_34898 x_34899)
			(mulacc_3 x_34944 (succ_86 zero_88) x_34898 x_34899)
			(mulacc_3 x_34945 x_34897 (succ_86 zero_88) x_34899)
			(mulacc_3 x_34946 x_34897 x_34898 (succ_86 zero_88))
			(addacc_11 x_34947 x_34944 x_34945 x_34946)
			(addacc_11 x_34948 (succ_86 x_34897) (succ_86 x_34898) (succ_86 x_34899))
			(addacc_11 x_34949 x_34943 x_34947 x_34948)
			(plus_80 fail_17 (succ_86 zero_88) x_34949))
		(mulacc_3 fail_17 (succ_86 x_34897) (succ_86 x_34898) (succ_86 x_34899)))))
(assert (forall ((x_34952 Nat_379) (x_34953 Nat_379) (x_34954 Nat_379) (x_34955 Nat_379) (x_34956 Nat_379) (x_34957 Nat_379) (x_34958 Nat_379) (fail_17 Nat_379) (x_34899 Nat_379))
	(=>	(and (diseqNat_379 x_34899 zero_88)
			(mulacc_3 x_34952 zero_88 zero_88 x_34899)
			(mulacc_3 x_34953 (succ_86 zero_88) zero_88 x_34899)
			(mulacc_3 x_34954 zero_88 (succ_86 zero_88) x_34899)
			(mulacc_3 x_34955 zero_88 zero_88 (succ_86 zero_88))
			(addacc_11 x_34956 x_34953 x_34954 x_34955)
			(addacc_11 x_34957 (succ_86 zero_88) (succ_86 zero_88) (succ_86 x_34899))
			(addacc_11 x_34958 x_34952 x_34956 x_34957)
			(plus_80 fail_17 (succ_86 zero_88) x_34958))
		(mulacc_3 fail_17 (succ_86 zero_88) (succ_86 zero_88) (succ_86 x_34899)))))
(assert (forall ((x_34961 Nat_379) (x_34962 Nat_379) (x_34963 Nat_379) (x_34964 Nat_379) (x_34965 Nat_379) (x_34966 Nat_379) (x_34967 Nat_379) (fail_17 Nat_379) (x_34899 Nat_379) (x_34898 Nat_379) (x_34897 Nat_379))
	(=>	(and (diseqNat_379 x_34897 zero_88)
			(mulacc_3 x_34961 x_34897 x_34898 x_34899)
			(mulacc_3 x_34962 (succ_86 zero_88) x_34898 x_34899)
			(mulacc_3 x_34963 x_34897 (succ_86 zero_88) x_34899)
			(mulacc_3 x_34964 x_34897 x_34898 (succ_86 zero_88))
			(addacc_11 x_34965 x_34962 x_34963 x_34964)
			(addacc_11 x_34966 (succ_86 x_34897) (succ_86 x_34898) (succ_86 x_34899))
			(addacc_11 x_34967 x_34961 x_34965 x_34966)
			(plus_80 fail_17 (succ_86 zero_88) x_34967))
		(mulacc_3 fail_17 (succ_86 x_34897) (succ_86 x_34898) (succ_86 x_34899)))))
(assert (forall ((x_34970 Nat_379) (x_34971 Nat_379) (x_34972 Nat_379) (x_34973 Nat_379) (x_34974 Nat_379) (x_34975 Nat_379) (x_34976 Nat_379) (fail_17 Nat_379) (x_34899 Nat_379) (x_34898 Nat_379))
	(=>	(and (diseqNat_379 x_34898 zero_88)
			(mulacc_3 x_34970 zero_88 x_34898 x_34899)
			(mulacc_3 x_34971 (succ_86 zero_88) x_34898 x_34899)
			(mulacc_3 x_34972 zero_88 (succ_86 zero_88) x_34899)
			(mulacc_3 x_34973 zero_88 x_34898 (succ_86 zero_88))
			(addacc_11 x_34974 x_34971 x_34972 x_34973)
			(addacc_11 x_34975 (succ_86 zero_88) (succ_86 x_34898) (succ_86 x_34899))
			(addacc_11 x_34976 x_34970 x_34974 x_34975)
			(plus_80 fail_17 (succ_86 zero_88) x_34976))
		(mulacc_3 fail_17 (succ_86 zero_88) (succ_86 x_34898) (succ_86 x_34899)))))
(assert (forall ((x_34979 Nat_379) (x_34980 Nat_379) (x_34981 Nat_379) (x_34982 Nat_379) (x_34983 Nat_379) (x_34984 Nat_379) (x_34985 Nat_379) (fail_17 Nat_379) (x_34899 Nat_379) (x_34898 Nat_379) (x_34897 Nat_379))
	(=>	(and (diseqNat_379 x_34897 zero_88)
			(mulacc_3 x_34979 x_34897 x_34898 x_34899)
			(mulacc_3 x_34980 (succ_86 zero_88) x_34898 x_34899)
			(mulacc_3 x_34981 x_34897 (succ_86 zero_88) x_34899)
			(mulacc_3 x_34982 x_34897 x_34898 (succ_86 zero_88))
			(addacc_11 x_34983 x_34980 x_34981 x_34982)
			(addacc_11 x_34984 (succ_86 x_34897) (succ_86 x_34898) (succ_86 x_34899))
			(addacc_11 x_34985 x_34979 x_34983 x_34984)
			(plus_80 fail_17 (succ_86 zero_88) x_34985))
		(mulacc_3 fail_17 (succ_86 x_34897) (succ_86 x_34898) (succ_86 x_34899)))))
(assert (forall ((x_34898 Nat_379) (x_34897 Nat_379))
	(mulacc_3 zero_88 (succ_86 x_34897) (succ_86 x_34898) zero_88)))
(assert (forall ((x_34897 Nat_379) (z_1302 Nat_379))
	(mulacc_3 zero_88 (succ_86 x_34897) zero_88 z_1302)))
(assert (forall ((y_1405 Nat_379) (z_1302 Nat_379))
	(mulacc_3 zero_88 zero_88 y_1405 z_1302)))
(assert (forall ((x_34991 Nat_379) (x_34992 Nat_379) (x_34993 Nat_379) (x_34994 Nat_379) (x_34900 Nat_379) (x_34901 Nat_379) (xacc_1 Nat_379) (x_34902 Nat_379) (x_34903 Nat_379))
	(=>	(and true
			(diseqNat_379 x_34992 x_34994)
			(mulacc_3 x_34991 x_34901 xacc_1 x_34902)
			(mulacc_3 x_34992 x_34900 x_34991 x_34903)
			(mulacc_3 x_34993 xacc_1 x_34902 x_34903)
			(mulacc_3 x_34994 x_34900 x_34901 x_34993))
		false)))
(assert (forall ((x_34995 Nat_379) (x_34996 Nat_379) (x_34997 Nat_379) (x_34998 Nat_379) (x_34904 Nat_379) (y_1406 Nat_379) (z_1303 Nat_379))
	(=>	(and true
			(diseqNat_379 x_34996 x_34998)
			(plus_80 x_34995 y_1406 z_1303)
			(plus_80 x_34996 x_34904 x_34995)
			(plus_80 x_34997 x_34904 y_1406)
			(plus_80 x_34998 x_34997 z_1303))
		false)))
(assert (forall ((x_34999 Nat_379) (x_35000 Nat_379) (x_34905 Nat_379) (y_1407 Nat_379))
	(=>	(and true
			(diseqNat_379 x_34999 x_35000)
			(plus_80 x_34999 x_34905 y_1407)
			(plus_80 x_35000 y_1407 x_34905))
		false)))
(assert (forall ((x_35001 Nat_379) (x_34906 Nat_379))
	(=>	(and true
			(diseqNat_379 x_35001 x_34906)
			(plus_80 x_35001 x_34906 zero_88))
		false)))
(assert (forall ((x_35002 Nat_379) (x_34907 Nat_379))
	(=>	(and true
			(diseqNat_379 x_35002 x_34907)
			(plus_80 x_35002 zero_88 x_34907))
		false)))
(check-sat)
